;; ===================== PROJECTED CANON (QE) =====================
;; Each clause below is entailed by Proj = ∃W.F over the canonical vocabulary.
;; Units appear first for clarity; OR-clauses (SAT-filtered) follow.
;; ==================================================================

;; Unit Bool constraints (entailed)
(assert patient_has_finding_of_sinus_rhythm_now)

;; Additional OR-clauses (SAT-filtered)
(assert (or (>= (+ (ite patient_has_diagnosis_of_diabetes_mellitus_now 1 0)
       (ite patient_has_diagnosis_of_hypertensive_disorder_now 1 0)
       (ite patient_has_diagnosis_of_hyperlipidemia_now 1 0)
       (ite patient_has_finding_of_coronary_arteriosclerosis_inthehistory 1 0))
    1) (>= (+ (ite patient_has_diagnosis_of_diabetes_mellitus_now 1 0)
       (ite patient_has_diagnosis_of_hypertensive_disorder_now 1 0)
       (ite patient_has_diagnosis_of_hyperlipidemia_now 1 0)
       (ite patient_has_finding_of_coronary_arteriosclerosis_inthehistory 1 0))
    2)))
(assert (or (>= (+ (ite patient_has_diagnosis_of_diabetes_mellitus_now 1 0)
       (ite patient_has_diagnosis_of_hypertensive_disorder_now 1 0)
       (ite patient_has_diagnosis_of_hyperlipidemia_now 1 0)
       (ite patient_has_finding_of_coronary_arteriosclerosis_inthehistory 1 0))
    1) (not (<= patient_age_value_recorded_now_in_years 40.0))))
(assert (or (>= (+ (ite patient_has_diagnosis_of_diabetes_mellitus_now 1 0)
       (ite patient_has_diagnosis_of_hypertensive_disorder_now 1 0)
       (ite patient_has_diagnosis_of_hyperlipidemia_now 1 0)
       (ite patient_has_finding_of_coronary_arteriosclerosis_inthehistory 1 0))
    1) (not (>= patient_age_value_recorded_now_in_years 75.0))))
(assert (or (not (<= patient_age_value_recorded_now_in_years 40.0)) (>= (+ (ite patient_has_diagnosis_of_diabetes_mellitus_now 1 0)
       (ite patient_has_diagnosis_of_hypertensive_disorder_now 1 0)
       (ite patient_has_diagnosis_of_hyperlipidemia_now 1 0)
       (ite patient_has_finding_of_coronary_arteriosclerosis_inthehistory 1 0))
    2)))
(assert (or (not (>= patient_age_value_recorded_now_in_years 75.0)) (not (<= patient_age_value_recorded_now_in_years 40.0))))
(assert (or (not (>= patient_age_value_recorded_now_in_years 75.0)) (>= (+ (ite patient_has_diagnosis_of_diabetes_mellitus_now 1 0)
       (ite patient_has_diagnosis_of_hypertensive_disorder_now 1 0)
       (ite patient_has_diagnosis_of_hyperlipidemia_now 1 0)
       (ite patient_has_finding_of_coronary_arteriosclerosis_inthehistory 1 0))
    2)))
